(declare-const X String)
; /filename=[^\n]*\x2emid/i
(assert (str.in_re X (re.++ (str.to_re "/filename=") (re.* (re.comp (str.to_re "\u{a}"))) (str.to_re ".mid/i\u{a}"))))
; Host\x3A\w+Toolbar\d+anHost\x3AspasHost\x3A
(assert (not (str.in_re X (re.++ (str.to_re "Host:") (re.+ (re.union (re.range "0" "9") (re.range "A" "Z") (re.range "a" "z") (str.to_re "_"))) (str.to_re "Toolbar") (re.+ (re.range "0" "9")) (str.to_re "anHost:spasHost:\u{a}")))))
; /\x2epif([\?\x5c\x2f]|$)/smiU
(assert (str.in_re X (re.++ (str.to_re "/.pif") (re.union (str.to_re "?") (str.to_re "\u{5c}") (str.to_re "/")) (str.to_re "/smiU\u{a}"))))
; ppcdomain\x2Eco\x2Euk\s+ready\w+PARSERHost\x3aA-311ServerUser-Agent\x3Ascn\x2emystoretoolbar\x2ecom
(assert (not (str.in_re X (re.++ (str.to_re "ppcdomain.co.uk") (re.+ (re.union (str.to_re " ") (str.to_re "\u{9}") (str.to_re "\u{a}") (str.to_re "\u{c}") (str.to_re "\u{d}"))) (str.to_re "ready") (re.+ (re.union (re.range "0" "9") (re.range "A" "Z") (re.range "a" "z") (str.to_re "_"))) (str.to_re "PARSERHost:A-311ServerUser-Agent:scn.mystoretoolbar.com\u{13}\u{a}")))))
(check-sat)

(exit)
